(set-logic LIA)
( synth-fun eq1  (      ( x  Int )  ( y  Int )  ( z  Int ) )  Int (
	(Start  Int (		NT1 
		NT3
		NT5
))
	(NT1  Int (		x
		y
		0
		1
		z
		(ite NT4 NT1 NT1)
))
	
	(NT3  Int (		(+ NT1 NT1)
		(ite NT4 NT3 NT1)
		(ite NT4 NT1 NT3)
		(ite NT7 NT1 NT1)
))
	(NT4  Bool (		(>= NT1 NT1)
		(and NT4 NT4)
))
	(NT5  Int (		(+ NT3 NT1)
		(ite NT4 NT3 NT3)
		(ite NT8 NT1 NT1)
		(ite NT4 NT5 NT1)
))
	(NT7  Bool (		(>= NT3 NT1)
		(and NT7 NT4)
))
	(NT8  Bool (		(>= NT3 NT3)
		(>= NT5 NT1)
		(and NT8 NT4)
		(and NT7 NT7)
))
))

(define-fun iteB (( b1 Bool ) (b2 Bool ) (b3 Bool )) Bool ( or ( and b1 b2 ) ( and (not b1 ) b3 ) ) )
(define-fun plus2 ((b1 Int) (b2 Int)) Int ( + b1 b2))
(define-fun plus3 ((b1 Int) (b2 Int) (b3 Int)) Int ( +  ( + b1 b2) b3))
(define-fun plus4 ((b1 Int) (b2 Int) (b3 Int) (b4 Int)) Int ( +  ( plus3  b1 b2 b3) b4))
(define-fun plus5 ((b1 Int) (b2 Int) (b3 Int) (b4 Int) (b5 Int)) Int (+  ( plus4 b1 b2 b3 b4) b5))
(define-fun plus6 ((b1 Int) (b2 Int) (b3 Int) (b4 Int) (b5 Int) (b6 Int) ) Int (+  ( plus5 b1 b2 b3 b4  b5) b6  ))
(define-fun plus7 ((b1 Int) (b2 Int) (b3 Int) (b4 Int) (b5 Int) (b6 Int) (b7 Int)) Int (+  ( plus6 b1 b2 b3 b4  b5 b6 ) b7  ))
(define-fun plus8 ((b1 Int) (b2 Int) (b3 Int) (b4 Int) (b5 Int) (b6 Int) (b7 Int) (be Int)) Int (+  ( plus7 b1 b2 b3 b4  b5 b6 b7) be  ))
(define-fun plus9 ((b1 Int) (b2 Int) (b3 Int) (b4 Int) (b5 Int) (b6 Int) (b7 Int) (be Int) (bn Int)) Int (+  ( plus8 b1 b2 b3 b4  b5 b6 b7 be) bn  ))

(define-fun or3 ((b1 Bool) (b2 Bool) (b3 Bool)) Bool ( or ( or b1 b2) b3))
(define-fun one-times  ((b1 Int )) Int b1)
(define-fun two-times  ((b1 Int )) Int ( plus2 b1 b1))
(define-fun three-times  ((b1 Int )) Int ( plus3 b1 b1 b1))
(define-fun five-times  ((b1 Int )) Int ( plus5 b1 b1 b1 b1 b1 ))
(define-fun seven-times ((b1 Int )) Int ( plus7 b1 b1 b1 b1 b1 b1 b1 ))
(define-fun nine-times  ((b1 Int )) Int ( plus9 b1 b1 b1 b1 b1 b1 b1 b1 b1))
(define-fun ten-times  ((b1 Int )) Int ( plus9 b1 b1 b1 b1 b1 b1 b1 b1 ( plus2 b1 b1 )))
(define-fun minus ((b1 Int)) Int ( - 0  b1 ))

(declare-var x Int ) 
(declare-var y Int ) 
(declare-var z Int ) 


(constraint ( iteB ( >= (plus2 x y) 1 ) 
	            ( iteB ( >= (plus2 x z) 1 )
                         ( = (eq1 x y z)   ( + x 2 ) ) 
                         ( = (eq1 x y z )  ( + y 2) ) 
                     ) 
                     ( = (eq1 x y z)   ( + z 2) ) 
               
             )
)      





(check-synth)

